/*********************************************
 * OPL 12.6.0.0 Data
 * Author: Adrian Rodriguez Bazaga, Pau Rodriguez Esmerats
 * Creation Date: 06/12/2017 at 23:03:03
 *********************************************/

nNurses=210;
maxConsec=2;
maxPresence=7;
maxHours=5;
minHours=1;
hours=24;
demand= [40 40 56 52 40 56 52 42 39 15 8 3 9 4 12 2 7 1 4 1 34 56 25 53  ];
